certificates/rado_a18_c12_N139.cnf
c Rad2 upper bound instance: x1 + 18*x2 - x3 = 12, interval [1,139]
p cnf 139 1120
1 7 0
-1 -7 0
1 2 25 0
-1 -2 -25 0
1 3 43 0
-1 -3 -43 0
1 4 61 0
-1 -4 -61 0
1 5 79 0
-1 -5 -79 0
1 6 97 0
-1 -6 -97 0
1 7 115 0
-1 -7 -115 0
1 8 133 0
-1 -8 -133 0
1 2 8 0
-1 -2 -8 0
2 26 0
-2 -26 0
2 3 44 0
-2 -3 -44 0
2 4 62 0
-2 -4 -62 0
2 5 80 0
-2 -5 -80 0
2 6 98 0
-2 -6 -98 0
2 7 116 0
-2 -7 -116 0
2 8 134 0
-2 -8 -134 0
1 3 9 0
-1 -3 -9 0
2 3 27 0
-2 -3 -27 0
3 45 0
-3 -45 0
3 4 63 0
-3 -4 -63 0
3 5 81 0
-3 -5 -81 0
3 6 99 0
-3 -6 -99 0
3 7 117 0
-3 -7 -117 0
3 8 135 0
-3 -8 -135 0
1 4 10 0
-1 -4 -10 0
2 4 28 0
-2 -4 -28 0
3 4 46 0
-3 -4 -46 0
4 64 0
-4 -64 0
4 5 82 0
-4 -5 -82 0
4 6 100 0
-4 -6 -100 0
4 7 118 0
-4 -7 -118 0
4 8 136 0
-4 -8 -136 0
1 5 11 0
-1 -5 -11 0
2 5 29 0
-2 -5 -29 0
3 5 47 0
-3 -5 -47 0
4 5 65 0
-4 -5 -65 0
5 83 0
-5 -83 0
5 6 101 0
-5 -6 -101 0
5 7 119 0
-5 -7 -119 0
5 8 137 0
-5 -8 -137 0
1 6 12 0
-1 -6 -12 0
2 6 30 0
-2 -6 -30 0
3 6 48 0
-3 -6 -48 0
4 6 66 0
-4 -6 -66 0
5 6 84 0
-5 -6 -84 0
6 102 0
-6 -102 0
6 7 120 0
-6 -7 -120 0
6 8 138 0
-6 -8 -138 0
1 7 13 0
-1 -7 -13 0
2 7 31 0
-2 -7 -31 0
3 7 49 0
-3 -7 -49 0
4 7 67 0
-4 -7 -67 0
5 7 85 0
-5 -7 -85 0
6 7 103 0
-6 -7 -103 0
7 121 0
-7 -121 0
7 8 139 0
-7 -8 -139 0
1 8 14 0
-1 -8 -14 0
2 8 32 0
-2 -8 -32 0
3 8 50 0
-3 -8 -50 0
4 8 68 0
-4 -8 -68 0
5 8 86 0
-5 -8 -86 0
6 8 104 0
-6 -8 -104 0
7 8 122 0
-7 -8 -122 0
1 9 15 0
-1 -9 -15 0
2 9 33 0
-2 -9 -33 0
3 9 51 0
-3 -9 -51 0
4 9 69 0
-4 -9 -69 0
5 9 87 0
-5 -9 -87 0
6 9 105 0
-6 -9 -105 0
7 9 123 0
-7 -9 -123 0
1 10 16 0
-1 -10 -16 0
2 10 34 0
-2 -10 -34 0
3 10 52 0
-3 -10 -52 0
4 10 70 0
-4 -10 -70 0
5 10 88 0
-5 -10 -88 0
6 10 106 0
-6 -10 -106 0
7 10 124 0
-7 -10 -124 0
1 11 17 0
-1 -11 -17 0
2 11 35 0
-2 -11 -35 0
3 11 53 0
-3 -11 -53 0
4 11 71 0
-4 -11 -71 0
5 11 89 0
-5 -11 -89 0
6 11 107 0
-6 -11 -107 0
7 11 125 0
-7 -11 -125 0
1 12 18 0
-1 -12 -18 0
2 12 36 0
-2 -12 -36 0
3 12 54 0
-3 -12 -54 0
4 12 72 0
-4 -12 -72 0
5 12 90 0
-5 -12 -90 0
6 12 108 0
-6 -12 -108 0
7 12 126 0
-7 -12 -126 0
1 13 19 0
-1 -13 -19 0
2 13 37 0
-2 -13 -37 0
3 13 55 0
-3 -13 -55 0
4 13 73 0
-4 -13 -73 0
5 13 91 0
-5 -13 -91 0
6 13 109 0
-6 -13 -109 0
7 13 127 0
-7 -13 -127 0
1 14 20 0
-1 -14 -20 0
2 14 38 0
-2 -14 -38 0
3 14 56 0
-3 -14 -56 0
4 14 74 0
-4 -14 -74 0
5 14 92 0
-5 -14 -92 0
6 14 110 0
-6 -14 -110 0
7 14 128 0
-7 -14 -128 0
1 15 21 0
-1 -15 -21 0
2 15 39 0
-2 -15 -39 0
3 15 57 0
-3 -15 -57 0
4 15 75 0
-4 -15 -75 0
5 15 93 0
-5 -15 -93 0
6 15 111 0
-6 -15 -111 0
7 15 129 0
-7 -15 -129 0
1 16 22 0
-1 -16 -22 0
2 16 40 0
-2 -16 -40 0
3 16 58 0
-3 -16 -58 0
4 16 76 0
-4 -16 -76 0
5 16 94 0
-5 -16 -94 0
6 16 112 0
-6 -16 -112 0
7 16 130 0
-7 -16 -130 0
1 17 23 0
-1 -17 -23 0
2 17 41 0
-2 -17 -41 0
3 17 59 0
-3 -17 -59 0
4 17 77 0
-4 -17 -77 0
5 17 95 0
-5 -17 -95 0
6 17 113 0
-6 -17 -113 0
7 17 131 0
-7 -17 -131 0
1 18 24 0
-1 -18 -24 0
2 18 42 0
-2 -18 -42 0
3 18 60 0
-3 -18 -60 0
4 18 78 0
-4 -18 -78 0
5 18 96 0
-5 -18 -96 0
6 18 114 0
-6 -18 -114 0
7 18 132 0
-7 -18 -132 0
1 19 25 0
-1 -19 -25 0
2 19 43 0
-2 -19 -43 0
3 19 61 0
-3 -19 -61 0
4 19 79 0
-4 -19 -79 0
5 19 97 0
-5 -19 -97 0
6 19 115 0
-6 -19 -115 0
7 19 133 0
-7 -19 -133 0
1 20 26 0
-1 -20 -26 0
2 20 44 0
-2 -20 -44 0
3 20 62 0
-3 -20 -62 0
4 20 80 0
-4 -20 -80 0
5 20 98 0
-5 -20 -98 0
6 20 116 0
-6 -20 -116 0
7 20 134 0
-7 -20 -134 0
1 21 27 0
-1 -21 -27 0
2 21 45 0
-2 -21 -45 0
3 21 63 0
-3 -21 -63 0
4 21 81 0
-4 -21 -81 0
5 21 99 0
-5 -21 -99 0
6 21 117 0
-6 -21 -117 0
7 21 135 0
-7 -21 -135 0
1 22 28 0
-1 -22 -28 0
2 22 46 0
-2 -22 -46 0
3 22 64 0
-3 -22 -64 0
4 22 82 0
-4 -22 -82 0
5 22 100 0
-5 -22 -100 0
6 22 118 0
-6 -22 -118 0
7 22 136 0
-7 -22 -136 0
1 23 29 0
-1 -23 -29 0
2 23 47 0
-2 -23 -47 0
3 23 65 0
-3 -23 -65 0
4 23 83 0
-4 -23 -83 0
5 23 101 0
-5 -23 -101 0
6 23 119 0
-6 -23 -119 0
7 23 137 0
-7 -23 -137 0
1 24 30 0
-1 -24 -30 0
2 24 48 0
-2 -24 -48 0
3 24 66 0
-3 -24 -66 0
4 24 84 0
-4 -24 -84 0
5 24 102 0
-5 -24 -102 0
6 24 120 0
-6 -24 -120 0
7 24 138 0
-7 -24 -138 0
1 25 31 0
-1 -25 -31 0
2 25 49 0
-2 -25 -49 0
3 25 67 0
-3 -25 -67 0
4 25 85 0
-4 -25 -85 0
5 25 103 0
-5 -25 -103 0
6 25 121 0
-6 -25 -121 0
7 25 139 0
-7 -25 -139 0
1 26 32 0
-1 -26 -32 0
2 26 50 0
-2 -26 -50 0
3 26 68 0
-3 -26 -68 0
4 26 86 0
-4 -26 -86 0
5 26 104 0
-5 -26 -104 0
6 26 122 0
-6 -26 -122 0
1 27 33 0
-1 -27 -33 0
2 27 51 0
-2 -27 -51 0
3 27 69 0
-3 -27 -69 0
4 27 87 0
-4 -27 -87 0
5 27 105 0
-5 -27 -105 0
6 27 123 0
-6 -27 -123 0
1 28 34 0
-1 -28 -34 0
2 28 52 0
-2 -28 -52 0
3 28 70 0
-3 -28 -70 0
4 28 88 0
-4 -28 -88 0
5 28 106 0
-5 -28 -106 0
6 28 124 0
-6 -28 -124 0
1 29 35 0
-1 -29 -35 0
2 29 53 0
-2 -29 -53 0
3 29 71 0
-3 -29 -71 0
4 29 89 0
-4 -29 -89 0
5 29 107 0
-5 -29 -107 0
6 29 125 0
-6 -29 -125 0
1 30 36 0
-1 -30 -36 0
2 30 54 0
-2 -30 -54 0
3 30 72 0
-3 -30 -72 0
4 30 90 0
-4 -30 -90 0
5 30 108 0
-5 -30 -108 0
6 30 126 0
-6 -30 -126 0
1 31 37 0
-1 -31 -37 0
2 31 55 0
-2 -31 -55 0
3 31 73 0
-3 -31 -73 0
4 31 91 0
-4 -31 -91 0
5 31 109 0
-5 -31 -109 0
6 31 127 0
-6 -31 -127 0
1 32 38 0
-1 -32 -38 0
2 32 56 0
-2 -32 -56 0
3 32 74 0
-3 -32 -74 0
4 32 92 0
-4 -32 -92 0
5 32 110 0
-5 -32 -110 0
6 32 128 0
-6 -32 -128 0
1 33 39 0
-1 -33 -39 0
2 33 57 0
-2 -33 -57 0
3 33 75 0
-3 -33 -75 0
4 33 93 0
-4 -33 -93 0
5 33 111 0
-5 -33 -111 0
6 33 129 0
-6 -33 -129 0
1 34 40 0
-1 -34 -40 0
2 34 58 0
-2 -34 -58 0
3 34 76 0
-3 -34 -76 0
4 34 94 0
-4 -34 -94 0
5 34 112 0
-5 -34 -112 0
6 34 130 0
-6 -34 -130 0
1 35 41 0
-1 -35 -41 0
2 35 59 0
-2 -35 -59 0
3 35 77 0
-3 -35 -77 0
4 35 95 0
-4 -35 -95 0
5 35 113 0
-5 -35 -113 0
6 35 131 0
-6 -35 -131 0
1 36 42 0
-1 -36 -42 0
2 36 60 0
-2 -36 -60 0
3 36 78 0
-3 -36 -78 0
4 36 96 0
-4 -36 -96 0
5 36 114 0
-5 -36 -114 0
6 36 132 0
-6 -36 -132 0
1 37 43 0
-1 -37 -43 0
2 37 61 0
-2 -37 -61 0
3 37 79 0
-3 -37 -79 0
4 37 97 0
-4 -37 -97 0
5 37 115 0
-5 -37 -115 0
6 37 133 0
-6 -37 -133 0
1 38 44 0
-1 -38 -44 0
2 38 62 0
-2 -38 -62 0
3 38 80 0
-3 -38 -80 0
4 38 98 0
-4 -38 -98 0
5 38 116 0
-5 -38 -116 0
6 38 134 0
-6 -38 -134 0
1 39 45 0
-1 -39 -45 0
2 39 63 0
-2 -39 -63 0
3 39 81 0
-3 -39 -81 0
4 39 99 0
-4 -39 -99 0
5 39 117 0
-5 -39 -117 0
6 39 135 0
-6 -39 -135 0
1 40 46 0
-1 -40 -46 0
2 40 64 0
-2 -40 -64 0
3 40 82 0
-3 -40 -82 0
4 40 100 0
-4 -40 -100 0
5 40 118 0
-5 -40 -118 0
6 40 136 0
-6 -40 -136 0
1 41 47 0
-1 -41 -47 0
2 41 65 0
-2 -41 -65 0
3 41 83 0
-3 -41 -83 0
4 41 101 0
-4 -41 -101 0
5 41 119 0
-5 -41 -119 0
6 41 137 0
-6 -41 -137 0
1 42 48 0
-1 -42 -48 0
2 42 66 0
-2 -42 -66 0
3 42 84 0
-3 -42 -84 0
4 42 102 0
-4 -42 -102 0
5 42 120 0
-5 -42 -120 0
6 42 138 0
-6 -42 -138 0
1 43 49 0
-1 -43 -49 0
2 43 67 0
-2 -43 -67 0
3 43 85 0
-3 -43 -85 0
4 43 103 0
-4 -43 -103 0
5 43 121 0
-5 -43 -121 0
6 43 139 0
-6 -43 -139 0
1 44 50 0
-1 -44 -50 0
2 44 68 0
-2 -44 -68 0
3 44 86 0
-3 -44 -86 0
4 44 104 0
-4 -44 -104 0
5 44 122 0
-5 -44 -122 0
1 45 51 0
-1 -45 -51 0
2 45 69 0
-2 -45 -69 0
3 45 87 0
-3 -45 -87 0
4 45 105 0
-4 -45 -105 0
5 45 123 0
-5 -45 -123 0
1 46 52 0
-1 -46 -52 0
2 46 70 0
-2 -46 -70 0
3 46 88 0
-3 -46 -88 0
4 46 106 0
-4 -46 -106 0
5 46 124 0
-5 -46 -124 0
1 47 53 0
-1 -47 -53 0
2 47 71 0
-2 -47 -71 0
3 47 89 0
-3 -47 -89 0
4 47 107 0
-4 -47 -107 0
5 47 125 0
-5 -47 -125 0
1 48 54 0
-1 -48 -54 0
2 48 72 0
-2 -48 -72 0
3 48 90 0
-3 -48 -90 0
4 48 108 0
-4 -48 -108 0
5 48 126 0
-5 -48 -126 0
1 49 55 0
-1 -49 -55 0
2 49 73 0
-2 -49 -73 0
3 49 91 0
-3 -49 -91 0
4 49 109 0
-4 -49 -109 0
5 49 127 0
-5 -49 -127 0
1 50 56 0
-1 -50 -56 0
2 50 74 0
-2 -50 -74 0
3 50 92 0
-3 -50 -92 0
4 50 110 0
-4 -50 -110 0
5 50 128 0
-5 -50 -128 0
1 51 57 0
-1 -51 -57 0
2 51 75 0
-2 -51 -75 0
3 51 93 0
-3 -51 -93 0
4 51 111 0
-4 -51 -111 0
5 51 129 0
-5 -51 -129 0
1 52 58 0
-1 -52 -58 0
2 52 76 0
-2 -52 -76 0
3 52 94 0
-3 -52 -94 0
4 52 112 0
-4 -52 -112 0
5 52 130 0
-5 -52 -130 0
1 53 59 0
-1 -53 -59 0
2 53 77 0
-2 -53 -77 0
3 53 95 0
-3 -53 -95 0
4 53 113 0
-4 -53 -113 0
5 53 131 0
-5 -53 -131 0
1 54 60 0
-1 -54 -60 0
2 54 78 0
-2 -54 -78 0
3 54 96 0
-3 -54 -96 0
4 54 114 0
-4 -54 -114 0
5 54 132 0
-5 -54 -132 0
1 55 61 0
-1 -55 -61 0
2 55 79 0
-2 -55 -79 0
3 55 97 0
-3 -55 -97 0
4 55 115 0
-4 -55 -115 0
5 55 133 0
-5 -55 -133 0
1 56 62 0
-1 -56 -62 0
2 56 80 0
-2 -56 -80 0
3 56 98 0
-3 -56 -98 0
4 56 116 0
-4 -56 -116 0
5 56 134 0
-5 -56 -134 0
1 57 63 0
-1 -57 -63 0
2 57 81 0
-2 -57 -81 0
3 57 99 0
-3 -57 -99 0
4 57 117 0
-4 -57 -117 0
5 57 135 0
-5 -57 -135 0
1 58 64 0
-1 -58 -64 0
2 58 82 0
-2 -58 -82 0
3 58 100 0
-3 -58 -100 0
4 58 118 0
-4 -58 -118 0
5 58 136 0
-5 -58 -136 0
1 59 65 0
-1 -59 -65 0
2 59 83 0
-2 -59 -83 0
3 59 101 0
-3 -59 -101 0
4 59 119 0
-4 -59 -119 0
5 59 137 0
-5 -59 -137 0
1 60 66 0
-1 -60 -66 0
2 60 84 0
-2 -60 -84 0
3 60 102 0
-3 -60 -102 0
4 60 120 0
-4 -60 -120 0
5 60 138 0
-5 -60 -138 0
1 61 67 0
-1 -61 -67 0
2 61 85 0
-2 -61 -85 0
3 61 103 0
-3 -61 -103 0
4 61 121 0
-4 -61 -121 0
5 61 139 0
-5 -61 -139 0
1 62 68 0
-1 -62 -68 0
2 62 86 0
-2 -62 -86 0
3 62 104 0
-3 -62 -104 0
4 62 122 0
-4 -62 -122 0
1 63 69 0
-1 -63 -69 0
2 63 87 0
-2 -63 -87 0
3 63 105 0
-3 -63 -105 0
4 63 123 0
-4 -63 -123 0
1 64 70 0
-1 -64 -70 0
2 64 88 0
-2 -64 -88 0
3 64 106 0
-3 -64 -106 0
4 64 124 0
-4 -64 -124 0
1 65 71 0
-1 -65 -71 0
2 65 89 0
-2 -65 -89 0
3 65 107 0
-3 -65 -107 0
4 65 125 0
-4 -65 -125 0
1 66 72 0
-1 -66 -72 0
2 66 90 0
-2 -66 -90 0
3 66 108 0
-3 -66 -108 0
4 66 126 0
-4 -66 -126 0
1 67 73 0
-1 -67 -73 0
2 67 91 0
-2 -67 -91 0
3 67 109 0
-3 -67 -109 0
4 67 127 0
-4 -67 -127 0
1 68 74 0
-1 -68 -74 0
2 68 92 0
-2 -68 -92 0
3 68 110 0
-3 -68 -110 0
4 68 128 0
-4 -68 -128 0
1 69 75 0
-1 -69 -75 0
2 69 93 0
-2 -69 -93 0
3 69 111 0
-3 -69 -111 0
4 69 129 0
-4 -69 -129 0
1 70 76 0
-1 -70 -76 0
2 70 94 0
-2 -70 -94 0
3 70 112 0
-3 -70 -112 0
4 70 130 0
-4 -70 -130 0
1 71 77 0
-1 -71 -77 0
2 71 95 0
-2 -71 -95 0
3 71 113 0
-3 -71 -113 0
4 71 131 0
-4 -71 -131 0
1 72 78 0
-1 -72 -78 0
2 72 96 0
-2 -72 -96 0
3 72 114 0
-3 -72 -114 0
4 72 132 0
-4 -72 -132 0
1 73 79 0
-1 -73 -79 0
2 73 97 0
-2 -73 -97 0
3 73 115 0
-3 -73 -115 0
4 73 133 0
-4 -73 -133 0
1 74 80 0
-1 -74 -80 0
2 74 98 0
-2 -74 -98 0
3 74 116 0
-3 -74 -116 0
4 74 134 0
-4 -74 -134 0
1 75 81 0
-1 -75 -81 0
2 75 99 0
-2 -75 -99 0
3 75 117 0
-3 -75 -117 0
4 75 135 0
-4 -75 -135 0
1 76 82 0
-1 -76 -82 0
2 76 100 0
-2 -76 -100 0
3 76 118 0
-3 -76 -118 0
4 76 136 0
-4 -76 -136 0
1 77 83 0
-1 -77 -83 0
2 77 101 0
-2 -77 -101 0
3 77 119 0
-3 -77 -119 0
4 77 137 0
-4 -77 -137 0
1 78 84 0
-1 -78 -84 0
2 78 102 0
-2 -78 -102 0
3 78 120 0
-3 -78 -120 0
4 78 138 0
-4 -78 -138 0
1 79 85 0
-1 -79 -85 0
2 79 103 0
-2 -79 -103 0
3 79 121 0
-3 -79 -121 0
4 79 139 0
-4 -79 -139 0
1 80 86 0
-1 -80 -86 0
2 80 104 0
-2 -80 -104 0
3 80 122 0
-3 -80 -122 0
1 81 87 0
-1 -81 -87 0
2 81 105 0
-2 -81 -105 0
3 81 123 0
-3 -81 -123 0
1 82 88 0
-1 -82 -88 0
2 82 106 0
-2 -82 -106 0
3 82 124 0
-3 -82 -124 0
1 83 89 0
-1 -83 -89 0
2 83 107 0
-2 -83 -107 0
3 83 125 0
-3 -83 -125 0
1 84 90 0
-1 -84 -90 0
2 84 108 0
-2 -84 -108 0
3 84 126 0
-3 -84 -126 0
1 85 91 0
-1 -85 -91 0
2 85 109 0
-2 -85 -109 0
3 85 127 0
-3 -85 -127 0
1 86 92 0
-1 -86 -92 0
2 86 110 0
-2 -86 -110 0
3 86 128 0
-3 -86 -128 0
1 87 93 0
-1 -87 -93 0
2 87 111 0
-2 -87 -111 0
3 87 129 0
-3 -87 -129 0
1 88 94 0
-1 -88 -94 0
2 88 112 0
-2 -88 -112 0
3 88 130 0
-3 -88 -130 0
1 89 95 0
-1 -89 -95 0
2 89 113 0
-2 -89 -113 0
3 89 131 0
-3 -89 -131 0
1 90 96 0
-1 -90 -96 0
2 90 114 0
-2 -90 -114 0
3 90 132 0
-3 -90 -132 0
1 91 97 0
-1 -91 -97 0
2 91 115 0
-2 -91 -115 0
3 91 133 0
-3 -91 -133 0
1 92 98 0
-1 -92 -98 0
2 92 116 0
-2 -92 -116 0
3 92 134 0
-3 -92 -134 0
1 93 99 0
-1 -93 -99 0
2 93 117 0
-2 -93 -117 0
3 93 135 0
-3 -93 -135 0
1 94 100 0
-1 -94 -100 0
2 94 118 0
-2 -94 -118 0
3 94 136 0
-3 -94 -136 0
1 95 101 0
-1 -95 -101 0
2 95 119 0
-2 -95 -119 0
3 95 137 0
-3 -95 -137 0
1 96 102 0
-1 -96 -102 0
2 96 120 0
-2 -96 -120 0
3 96 138 0
-3 -96 -138 0
1 97 103 0
-1 -97 -103 0
2 97 121 0
-2 -97 -121 0
3 97 139 0
-3 -97 -139 0
1 98 104 0
-1 -98 -104 0
2 98 122 0
-2 -98 -122 0
1 99 105 0
-1 -99 -105 0
2 99 123 0
-2 -99 -123 0
1 100 106 0
-1 -100 -106 0
2 100 124 0
-2 -100 -124 0
1 101 107 0
-1 -101 -107 0
2 101 125 0
-2 -101 -125 0
1 102 108 0
-1 -102 -108 0
2 102 126 0
-2 -102 -126 0
1 103 109 0
-1 -103 -109 0
2 103 127 0
-2 -103 -127 0
1 104 110 0
-1 -104 -110 0
2 104 128 0
-2 -104 -128 0
1 105 111 0
-1 -105 -111 0
2 105 129 0
-2 -105 -129 0
1 106 112 0
-1 -106 -112 0
2 106 130 0
-2 -106 -130 0
1 107 113 0
-1 -107 -113 0
2 107 131 0
-2 -107 -131 0
1 108 114 0
-1 -108 -114 0
2 108 132 0
-2 -108 -132 0
1 109 115 0
-1 -109 -115 0
2 109 133 0
-2 -109 -133 0
1 110 116 0
-1 -110 -116 0
2 110 134 0
-2 -110 -134 0
1 111 117 0
-1 -111 -117 0
2 111 135 0
-2 -111 -135 0
1 112 118 0
-1 -112 -118 0
2 112 136 0
-2 -112 -136 0
1 113 119 0
-1 -113 -119 0
2 113 137 0
-2 -113 -137 0
1 114 120 0
-1 -114 -120 0
2 114 138 0
-2 -114 -138 0
1 115 121 0
-1 -115 -121 0
2 115 139 0
-2 -115 -139 0
1 116 122 0
-1 -116 -122 0
1 117 123 0
-1 -117 -123 0
1 118 124 0
-1 -118 -124 0
1 119 125 0
-1 -119 -125 0
1 120 126 0
-1 -120 -126 0
1 121 127 0
-1 -121 -127 0
1 122 128 0
-1 -122 -128 0
1 123 129 0
-1 -123 -129 0
1 124 130 0
-1 -124 -130 0
1 125 131 0
-1 -125 -131 0
1 126 132 0
-1 -126 -132 0
1 127 133 0
-1 -127 -133 0
1 128 134 0
-1 -128 -134 0
1 129 135 0
-1 -129 -135 0
1 130 136 0
-1 -130 -136 0
1 131 137 0
-1 -131 -137 0
1 132 138 0
-1 -132 -138 0
1 133 139 0
-1 -133 -139 0
