certificates/rado_a18_c12_N139.drat
-133 -139 0
d -133 -1 -139 0
19 25 133 0
-7 -139 0
-139 0
133 0
7 0
-1 0
-121 0
-19 0
127 0
115 0
25 0
13 0
0
